(set-logic QF_FPBV)
(set-info :source |Random FP created by PyMPF|)
(set-info :category random)
(set-info :status unsat)
;; fp.from.sbv(BitVec 32)
(declare-const x (_ BitVec 32))
(assert (bvsle x #b10111110011010101110010101010100))
;; x should be -1100290732
(declare-const r Float16)
(assert (= r ((_ to_fp 5 11) RNA x)))
(assert (not (fp.leq r ((_ to_fp 5 11) #xFC00))))
(check-sat)
(exit)
